c Random 5-CNF over 20 variables and 140 clauses
c Generated with `cnfgen`
c (C) 2012-2016 Massimo Lauria <lauria.massimo@gmail.com>
c https://massimolauria.github.io/cnfgen
c
c COMMAND LINE: cnfgen --output tmp-5-20-140.dimacs --output-format dimacs randkcnf 5 20 140
c
c sdimacs generated by gen-sdimacs
c
p cnf 20 140
e 11 12 13 14 15 16 17 18 19 20 0
r 0.37 1 2 3 4 5 6 7 8 9 10 0
-10 13 15 -16 17 0
2 5 -7 -8 19 0
1 -3 -7 -12 -20 0
1 -3 -7 10 -19 0
-5 -7 10 11 -19 0
-1 2 4 7 -18 0
5 -9 -11 -19 -20 0
1 3 5 7 -15 0
3 -6 -7 9 -17 0
-9 11 16 -18 19 0
8 -12 13 17 -20 0
-4 5 -6 7 -16 0
1 3 -6 7 9 0
5 -11 -12 17 20 0
-4 -11 13 -14 18 0
-6 7 -8 -14 -15 0
-6 -14 15 16 18 0
-2 -7 -9 14 -15 0
-7 -11 -12 13 17 0
-1 4 -5 11 -16 0
-1 2 7 10 15 0
2 11 13 -14 -17 0
5 10 13 -16 17 0
-1 4 8 14 -16 0
-4 -6 -7 12 -14 0
1 -2 9 -10 12 0
-6 -8 10 11 13 0
1 4 -11 14 18 0
3 6 7 17 -19 0
-3 12 14 17 19 0
-7 12 -13 15 19 0
4 11 13 -18 -19 0
9 10 14 -15 -16 0
-1 7 18 19 20 0
5 -10 13 14 -20 0
4 13 -17 18 20 0
-5 10 -14 18 19 0
5 -7 -15 -17 18 0
2 -3 4 -7 10 0
-1 -4 10 12 -16 0
4 -14 -15 -17 19 0
3 5 -6 12 15 0
-1 3 9 -14 15 0
-3 4 -11 -15 -20 0
-3 7 10 15 -20 0
-1 -3 -4 7 19 0
-3 -9 14 15 -20 0
4 6 11 -13 19 0
-8 -11 -14 15 -17 0
2 -6 -15 -16 18 0
2 -5 8 -11 16 0
6 -9 -11 12 18 0
-10 -13 -15 18 19 0
-3 6 7 -13 16 0
6 -10 -12 -16 17 0
-4 -8 10 12 -13 0
3 4 -8 15 16 0
1 3 -9 13 17 0
7 -8 9 15 19 0
-3 -4 12 -19 -20 0
-1 -3 18 -19 -20 0
5 9 10 15 -19 0
2 3 6 9 -11 0
1 5 8 -10 -13 0
4 7 10 -11 19 0
-5 9 -10 -11 17 0
6 11 -12 -13 20 0
-2 12 13 -15 18 0
-3 8 -9 -13 15 0
1 2 7 -10 -14 0
2 -3 10 15 18 0
-1 -4 8 10 -15 0
-7 -12 17 18 20 0
-3 -6 -7 -10 18 0
-1 10 -12 15 -17 0
-5 6 -7 -8 -9 0
2 6 -12 16 -19 0
1 7 -8 -10 -18 0
-6 9 -12 -14 -20 0
-5 6 -8 -9 12 0
-3 -8 14 16 -18 0
-2 -7 11 17 20 0
7 10 -15 18 20 0
-5 -7 10 -12 18 0
1 9 -13 18 -20 0
-2 4 -7 -17 -19 0
11 -12 -13 -16 20 0
-4 -9 -12 15 -20 0
-5 -7 -11 13 19 0
-3 -4 -11 -12 -14 0
-3 -4 8 -9 11 0
3 8 -11 -18 -20 0
1 10 11 -14 -16 0
3 -6 -14 -15 -17 0
5 7 -13 15 17 0
1 3 -6 15 -18 0
-3 5 -9 12 16 0
5 -6 -10 -14 -16 0
1 -7 8 17 -20 0
1 -4 7 14 20 0
1 -4 5 -15 18 0
-5 -8 -13 -15 -20 0
2 4 5 -6 16 0
-2 6 -7 -13 -15 0
1 4 7 -11 -19 0
1 3 7 8 -13 0
-1 -10 -13 15 20 0
-5 7 8 -9 -10 0
-3 6 8 16 -19 0
-2 -4 7 -14 19 0
3 5 12 -14 -20 0
3 -4 7 -13 17 0
2 5 15 -19 -20 0
5 -8 12 17 -19 0
10 -12 16 17 -20 0
-2 7 8 -15 -20 0
2 3 5 9 -13 0
-3 6 11 -12 18 0
10 -11 -13 19 -20 0
-3 4 -9 -13 -14 0
-3 -6 10 -14 -17 0
5 -9 -11 -14 -16 0
3 4 8 14 -19 0
-1 6 -9 -16 -17 0
7 10 -14 -16 -17 0
2 4 5 9 11 0
4 -9 -11 14 -19 0
-2 -3 -4 -6 8 0
5 10 11 14 -17 0
-2 4 -10 -16 17 0
-4 -6 -7 12 15 0
-1 -9 -18 -19 -20 0
2 -3 6 15 16 0
-3 -5 -8 14 15 0
6 -13 -14 -18 20 0
7 -11 13 15 -16 0
-1 -4 16 -18 19 0
-1 -6 15 16 19 0
2 6 -15 -19 -20 0
8 9 10 14 16 0
